60
1 180 688
2 420 10
3 434 862
4 908 544
5 16 111
6 120 127
7 763 978
8 417 83
9 672 382
10 698 756
11 10 783
12 399 23
13 908 315
14 715 445
15 201 76
16 130 734
17 75 556
18 793 42
19 496 972
20 767 861
21 909 266
22 986 237
23 795 882
24 528 223
25 90 188
26 753 742
27 52 741
28 11 893
29 929 305
30 922 722
31 700 462
32 11 958
33 931 724
34 18 136
35 479 319
36 527 501
37 667 842
38 61 221
39 647 682
40 449 110
41 353 107
42 663 652
43 750 90
44 106 762
45 338 30
46 691 534
47 846 632
48 740 450
49 479 799
50 194 802
51 169 560
52 139 655
53 861 850
54 665 641
55 16 710
56 440 392
57 425 860
58 961 723
59 841 540
60 554 705
